;test regex if("1.6.1.1.60885.5".matches("1.6.1.1.n.5".replaceAll("n", "\\\\d{0,10}")))
(declare-const X String)
(assert (str.in_re X (re.++ (str.to_re "i") (re.++ (str.to_re "f") (re.++ (str.to_re "\u{22}") (re.++ (str.to_re "1") (re.++ (re.diff re.allchar (str.to_re "\n")) (re.++ (str.to_re "6") (re.++ (re.diff re.allchar (str.to_re "\n")) (re.++ (str.to_re "1") (re.++ (re.diff re.allchar (str.to_re "\n")) (re.++ (str.to_re "1") (re.++ (re.diff re.allchar (str.to_re "\n")) (re.++ (str.to_re "60885") (re.++ (re.diff re.allchar (str.to_re "\n")) (re.++ (str.to_re "5") (re.++ (str.to_re "\u{22}") (re.++ (re.diff re.allchar (str.to_re "\n")) (re.++ (str.to_re "m") (re.++ (str.to_re "a") (re.++ (str.to_re "t") (re.++ (str.to_re "c") (re.++ (str.to_re "h") (re.++ (str.to_re "e") (re.++ (str.to_re "s") (re.++ (str.to_re "\u{22}") (re.++ (str.to_re "1") (re.++ (re.diff re.allchar (str.to_re "\n")) (re.++ (str.to_re "6") (re.++ (re.diff re.allchar (str.to_re "\n")) (re.++ (str.to_re "1") (re.++ (re.diff re.allchar (str.to_re "\n")) (re.++ (str.to_re "1") (re.++ (re.diff re.allchar (str.to_re "\n")) (re.++ (str.to_re "n") (re.++ (re.diff re.allchar (str.to_re "\n")) (re.++ (str.to_re "5") (re.++ (str.to_re "\u{22}") (re.++ (re.diff re.allchar (str.to_re "\n")) (re.++ (str.to_re "r") (re.++ (str.to_re "e") (re.++ (str.to_re "p") (re.++ (str.to_re "l") (re.++ (str.to_re "a") (re.++ (str.to_re "c") (re.++ (str.to_re "e") (re.++ (str.to_re "A") (re.++ (str.to_re "l") (re.++ (str.to_re "l") (re.++ (re.++ (str.to_re "\u{22}") (re.++ (str.to_re "n") (str.to_re "\u{22}"))) (re.++ (str.to_re ",") (re.++ (str.to_re " ") (re.++ (str.to_re "\u{22}") (re.++ (str.to_re "\\") (re.++ (str.to_re "\\") (re.++ ((_ re.loop 0 10) (str.to_re "d")) (str.to_re "\u{22}")))))))))))))))))))))))))))))))))))))))))))))))))))))))))
; sanitize danger characters:  < > ' " &
(assert (not (str.in_re X (re.++ re.all (re.union (str.to_re "\u{3c}") (str.to_re "\u{3e}") (str.to_re "\u{27}") (str.to_re "\u{22}") (str.to_re "\u{26}")) re.all))))
(assert (< 10 (str.len X)))
(check-sat)
(get-model)